46 46
21 3
4 10
5 14
23 40
10 20
19 25
11 41
3 31
17 24
6 46
15 23
13 42
22 44
22 11
20 29
4 26
13 32
16 13
19 36
12 17
12 21
9 9
2 19
14 22
17 45
11 7
10 35
5 5
1 28
18 16
20 4
9 43
21 30
14 37
3 34
7 33
18 8
16 27
6 18
15 1
1 12
8 39
23 38
7 15
8 2
2 6
